NAME           C:\Bruker\Hvattum\knapsack\Problems\class1\100-5-05.mps
ROWS
 N  OBJ
 L  CONSTR1
 L  CONSTR2
 L  CONSTR3
 L  CONSTR4
 L  CONSTR5
COLUMNS
    INT0001   'MARKER'  'INTORG'
    X1        OBJ       829
    X1        CONSTR1   502
    X1        CONSTR2   430
    X1        CONSTR3   828
    X1        CONSTR4   839
    X1        CONSTR5   949
    X2        OBJ       618
    X2        CONSTR1   66
    X2        CONSTR2   323
    X2        CONSTR3   553
    X2        CONSTR4   674
    X2        CONSTR5   517
    X3        OBJ       641
    X3        CONSTR1   229
    X3        CONSTR2   712
    X3        CONSTR3   337
    X3        CONSTR4   396
    X3        CONSTR5   55
    X4        OBJ       992
    X4        CONSTR1   725
    X4        CONSTR2   645
    X4        CONSTR3   862
    X4        CONSTR4   128
    X4        CONSTR5   290
    X5        OBJ       985
    X5        CONSTR1   461
    X5        CONSTR2   833
    X5        CONSTR3   225
    X5        CONSTR4   569
    X5        CONSTR5   784
    X6        OBJ       570
    X6        CONSTR1   533
    X6        CONSTR2   762
    X6        CONSTR3   41
    X6        CONSTR4   631
    X6        CONSTR5   129
    X7        OBJ       650
    X7        CONSTR1   658
    X7        CONSTR2   352
    X7        CONSTR3   933
    X7        CONSTR4   725
    X7        CONSTR5   21
    X8        OBJ       902
    X8        CONSTR1   340
    X8        CONSTR2   411
    X8        CONSTR3   845
    X8        CONSTR4   552
    X8        CONSTR5   599
    X9        OBJ       1049
    X9        CONSTR1   95
    X9        CONSTR2   715
    X9        CONSTR3   980
    X9        CONSTR4   365
    X9        CONSTR5   792
    X10       OBJ       571
    X10       CONSTR1   501
    X10       CONSTR2   141
    X10       CONSTR3   433
    X10       CONSTR4   292
    X10       CONSTR5   529
    X11       OBJ       567
    X11       CONSTR1   697
    X11       CONSTR2   887
    X11       CONSTR3   139
    X11       CONSTR4   649
    X11       CONSTR5   46
    X12       OBJ       498
    X12       CONSTR1   437
    X12       CONSTR2   331
    X12       CONSTR3   809
    X12       CONSTR4   177
    X12       CONSTR5   542
    X13       OBJ       600
    X13       CONSTR1   172
    X13       CONSTR2   388
    X13       CONSTR3   174
    X13       CONSTR4   372
    X13       CONSTR5   766
    X14       OBJ       986
    X14       CONSTR1   549
    X14       CONSTR2   546
    X14       CONSTR3   769
    X14       CONSTR4   75
    X14       CONSTR5   707
    X15       OBJ       855
    X15       CONSTR1   801
    X15       CONSTR2   817
    X15       CONSTR3   819
    X15       CONSTR4   76
    X15       CONSTR5   864
    X16       OBJ       688
    X16       CONSTR1   408
    X16       CONSTR2   813
    X16       CONSTR3   641
    X16       CONSTR4   614
    X16       CONSTR5   166
    X17       OBJ       995
    X17       CONSTR1   866
    X17       CONSTR2   541
    X17       CONSTR3   460
    X17       CONSTR4   205
    X17       CONSTR5   878
    X18       OBJ       962
    X18       CONSTR1   475
    X18       CONSTR2   144
    X18       CONSTR3   906
    X18       CONSTR4   33
    X18       CONSTR5   808
    X19       OBJ       644
    X19       CONSTR1   253
    X19       CONSTR2   300
    X19       CONSTR3   816
    X19       CONSTR4   644
    X19       CONSTR5   61
    X20       OBJ       710
    X20       CONSTR1   467
    X20       CONSTR2   311
    X20       CONSTR3   998
    X20       CONSTR4   660
    X20       CONSTR5   475
    X21       OBJ       632
    X21       CONSTR1   809
    X21       CONSTR2   264
    X21       CONSTR3   112
    X21       CONSTR4   996
    X21       CONSTR5   657
    X22       OBJ       1068
    X22       CONSTR1   802
    X22       CONSTR2   591
    X22       CONSTR3   608
    X22       CONSTR4   517
    X22       CONSTR5   933
    X23       OBJ       735
    X23       CONSTR1   683
    X23       CONSTR2   657
    X23       CONSTR3   653
    X23       CONSTR4   905
    X23       CONSTR5   257
    X24       OBJ       1087
    X24       CONSTR1   738
    X24       CONSTR2   848
    X24       CONSTR3   341
    X24       CONSTR4   989
    X24       CONSTR5   596
    X25       OBJ       646
    X25       CONSTR1   160
    X25       CONSTR2   101
    X25       CONSTR3   963
    X25       CONSTR4   284
    X25       CONSTR5   378
    X26       OBJ       780
    X26       CONSTR1   41
    X26       CONSTR2   862
    X26       CONSTR3   453
    X26       CONSTR4   498
    X26       CONSTR5   685
    X27       OBJ       655
    X27       CONSTR1   432
    X27       CONSTR2   282
    X27       CONSTR3   968
    X27       CONSTR4   332
    X27       CONSTR5   506
    X28       OBJ       706
    X28       CONSTR1   538
    X28       CONSTR2   66
    X28       CONSTR3   909
    X28       CONSTR4   589
    X28       CONSTR5   223
    X29       OBJ       1113
    X29       CONSTR1   342
    X29       CONSTR2   101
    X29       CONSTR3   985
    X29       CONSTR4   842
    X29       CONSTR5   928
    X30       OBJ       550
    X30       CONSTR1   957
    X30       CONSTR2   401
    X30       CONSTR3   509
    X30       CONSTR4   337
    X30       CONSTR5   376
    X31       OBJ       625
    X31       CONSTR1   515
    X31       CONSTR2   322
    X31       CONSTR3   184
    X31       CONSTR4   656
    X31       CONSTR5   421
    X32       OBJ       967
    X32       CONSTR1   995
    X32       CONSTR2   363
    X32       CONSTR3   807
    X32       CONSTR4   185
    X32       CONSTR5   369
    X33       OBJ       1101
    X33       CONSTR1   824
    X33       CONSTR2   471
    X33       CONSTR3   459
    X33       CONSTR4   834
    X33       CONSTR5   577
    X34       OBJ       551
    X34       CONSTR1   255
    X34       CONSTR2   750
    X34       CONSTR3   726
    X34       CONSTR4   128
    X34       CONSTR5   194
    X35       OBJ       963
    X35       CONSTR1   712
    X35       CONSTR2   871
    X35       CONSTR3   336
    X35       CONSTR4   291
    X35       CONSTR5   341
    X36       OBJ       799
    X36       CONSTR1   241
    X36       CONSTR2   523
    X36       CONSTR3   800
    X36       CONSTR4   789
    X36       CONSTR5   824
    X37       OBJ       472
    X37       CONSTR1   541
    X37       CONSTR2   163
    X37       CONSTR3   818
    X37       CONSTR4   702
    X37       CONSTR5   73
    X38       OBJ       1134
    X38       CONSTR1   806
    X38       CONSTR2   428
    X38       CONSTR3   779
    X38       CONSTR4   935
    X38       CONSTR5   948
    X39       OBJ       692
    X39       CONSTR1   577
    X39       CONSTR2   265
    X39       CONSTR3   1
    X39       CONSTR4   883
    X39       CONSTR5   618
    X40       OBJ       512
    X40       CONSTR1   313
    X40       CONSTR2   284
    X40       CONSTR3   656
    X40       CONSTR4   66
    X40       CONSTR5   764
    X41       OBJ       852
    X41       CONSTR1   595
    X41       CONSTR2   338
    X41       CONSTR3   344
    X41       CONSTR4   721
    X41       CONSTR5   469
    X42       OBJ       749
    X42       CONSTR1   899
    X42       CONSTR2   346
    X42       CONSTR3   556
    X42       CONSTR4   673
    X42       CONSTR5   682
    X43       OBJ       557
    X43       CONSTR1   676
    X43       CONSTR2   616
    X43       CONSTR3   177
    X43       CONSTR4   897
    X43       CONSTR5   275
    X44       OBJ       1144
    X44       CONSTR1   772
    X44       CONSTR2   467
    X44       CONSTR3   736
    X44       CONSTR4   906
    X44       CONSTR5   609
    X45       OBJ       707
    X45       CONSTR1   560
    X45       CONSTR2   401
    X45       CONSTR3   263
    X45       CONSTR4   408
    X45       CONSTR5   290
    X46       OBJ       679
    X46       CONSTR1   342
    X46       CONSTR2   464
    X46       CONSTR3   304
    X46       CONSTR4   645
    X46       CONSTR5   873
    X47       OBJ       907
    X47       CONSTR1   791
    X47       CONSTR2   239
    X47       CONSTR3   542
    X47       CONSTR4   519
    X47       CONSTR5   147
    X48       OBJ       789
    X48       CONSTR1   253
    X48       CONSTR2   712
    X48       CONSTR3   813
    X48       CONSTR4   244
    X48       CONSTR5   926
    X49       OBJ       732
    X49       CONSTR1   400
    X49       CONSTR2   866
    X49       CONSTR3   326
    X49       CONSTR4   595
    X49       CONSTR5   772
    X50       OBJ       556
    X50       CONSTR1   180
    X50       CONSTR2   129
    X50       CONSTR3   718
    X50       CONSTR4   15
    X50       CONSTR5   7
    X51       OBJ       784
    X51       CONSTR1   60
    X51       CONSTR2   202
    X51       CONSTR3   601
    X51       CONSTR4   464
    X51       CONSTR5   860
    X52       OBJ       796
    X52       CONSTR1   722
    X52       CONSTR2   710
    X52       CONSTR3   591
    X52       CONSTR4   93
    X52       CONSTR5   963
    X53       OBJ       702
    X53       CONSTR1   945
    X53       CONSTR2   353
    X53       CONSTR3   216
    X53       CONSTR4   254
    X53       CONSTR5   543
    X54       OBJ       744
    X54       CONSTR1   164
    X54       CONSTR2   715
    X54       CONSTR3   918
    X54       CONSTR4   627
    X54       CONSTR5   119
    X55       OBJ       603
    X55       CONSTR1   116
    X55       CONSTR2   176
    X55       CONSTR3   394
    X55       CONSTR4   284
    X55       CONSTR5   95
    X56       OBJ       917
    X56       CONSTR1   429
    X56       CONSTR2   395
    X56       CONSTR3   512
    X56       CONSTR4   436
    X56       CONSTR5   764
    X57       OBJ       998
    X57       CONSTR1   856
    X57       CONSTR2   71
    X57       CONSTR3   378
    X57       CONSTR4   787
    X57       CONSTR5   560
    X58       OBJ       527
    X58       CONSTR1   102
    X58       CONSTR2   644
    X58       CONSTR3   970
    X58       CONSTR4   50
    X58       CONSTR5   563
    X59       OBJ       949
    X59       CONSTR1   573
    X59       CONSTR2   440
    X59       CONSTR3   751
    X59       CONSTR4   224
    X59       CONSTR5   959
    X60       OBJ       791
    X60       CONSTR1   623
    X60       CONSTR2   247
    X60       CONSTR3   957
    X60       CONSTR4   220
    X60       CONSTR5   743
    X61       OBJ       883
    X61       CONSTR1   633
    X61       CONSTR2   616
    X61       CONSTR3   639
    X61       CONSTR4   459
    X61       CONSTR5   57
    X62       OBJ       619
    X62       CONSTR1   59
    X62       CONSTR2   68
    X62       CONSTR3   131
    X62       CONSTR4   124
    X62       CONSTR5   641
    X63       OBJ       707
    X63       CONSTR1   235
    X63       CONSTR2   598
    X63       CONSTR3   116
    X63       CONSTR4   607
    X63       CONSTR5   48
    X64       OBJ       383
    X64       CONSTR1   737
    X64       CONSTR2   12
    X64       CONSTR3   494
    X64       CONSTR4   64
    X64       CONSTR5   63
    X65       OBJ       494
    X65       CONSTR1   376
    X65       CONSTR2   421
    X65       CONSTR3   662
    X65       CONSTR4   889
    X65       CONSTR5   87
    X66       OBJ       477
    X66       CONSTR1   370
    X66       CONSTR2   83
    X66       CONSTR3   166
    X66       CONSTR4   172
    X66       CONSTR5   145
    X67       OBJ       822
    X67       CONSTR1   528
    X67       CONSTR2   938
    X67       CONSTR3   345
    X67       CONSTR4   115
    X67       CONSTR5   338
    X68       OBJ       1137
    X68       CONSTR1   546
    X68       CONSTR2   602
    X68       CONSTR3   725
    X68       CONSTR4   904
    X68       CONSTR5   463
    X69       OBJ       807
    X69       CONSTR1   699
    X69       CONSTR2   793
    X69       CONSTR3   135
    X69       CONSTR4   924
    X69       CONSTR5   947
    X70       OBJ       615
    X70       CONSTR1   352
    X70       CONSTR2   745
    X70       CONSTR3   843
    X70       CONSTR4   169
    X70       CONSTR5   611
    X71       OBJ       935
    X71       CONSTR1   523
    X71       CONSTR2   924
    X71       CONSTR3   878
    X71       CONSTR4   841
    X71       CONSTR5   494
    X72       OBJ       448
    X72       CONSTR1   327
    X72       CONSTR2   535
    X72       CONSTR3   121
    X72       CONSTR4   110
    X72       CONSTR5   190
    X73       OBJ       743
    X73       CONSTR1   412
    X73       CONSTR2   20
    X73       CONSTR3   600
    X73       CONSTR4   536
    X73       CONSTR5   762
    X74       OBJ       926
    X74       CONSTR1   869
    X74       CONSTR2   303
    X74       CONSTR3   569
    X74       CONSTR4   962
    X74       CONSTR5   851
    X75       OBJ       818
    X75       CONSTR1   841
    X75       CONSTR2   586
    X75       CONSTR3   735
    X75       CONSTR4   192
    X75       CONSTR5   717
    X76       OBJ       669
    X76       CONSTR1   758
    X76       CONSTR2   953
    X76       CONSTR3   263
    X76       CONSTR4   295
    X76       CONSTR5   908
    X77       OBJ       650
    X77       CONSTR1   320
    X77       CONSTR2   929
    X77       CONSTR3   425
    X77       CONSTR4   507
    X77       CONSTR5   758
    X78       OBJ       798
    X78       CONSTR1   230
    X78       CONSTR2   536
    X78       CONSTR3   803
    X78       CONSTR4   879
    X78       CONSTR5   714
    X79       OBJ       509
    X79       CONSTR1   6
    X79       CONSTR2   301
    X79       CONSTR3   632
    X79       CONSTR4   456
    X79       CONSTR5   123
    X80       OBJ       732
    X80       CONSTR1   409
    X80       CONSTR2   396
    X80       CONSTR3   5
    X80       CONSTR4   433
    X80       CONSTR5   240
    X81       OBJ       842
    X81       CONSTR1   432
    X81       CONSTR2   87
    X81       CONSTR3   529
    X81       CONSTR4   865
    X81       CONSTR5   712
    X82       OBJ       882
    X82       CONSTR1   678
    X82       CONSTR2   287
    X82       CONSTR3   609
    X82       CONSTR4   400
    X82       CONSTR5   59
    X83       OBJ       643
    X83       CONSTR1   562
    X83       CONSTR2   575
    X83       CONSTR3   328
    X83       CONSTR4   762
    X83       CONSTR5   7
    X84       OBJ       752
    X84       CONSTR1   595
    X84       CONSTR2   290
    X84       CONSTR3   647
    X84       CONSTR4   985
    X84       CONSTR5   199
    X85       OBJ       1063
    X85       CONSTR1   778
    X85       CONSTR2   714
    X85       CONSTR3   575
    X85       CONSTR4   591
    X85       CONSTR5   900
    X86       OBJ       436
    X86       CONSTR1   364
    X86       CONSTR2   407
    X86       CONSTR3   510
    X86       CONSTR4   502
    X86       CONSTR5   18
    X87       OBJ       637
    X87       CONSTR1   908
    X87       CONSTR2   717
    X87       CONSTR3   413
    X87       CONSTR4   291
    X87       CONSTR5   183
    X88       OBJ       652
    X88       CONSTR1   188
    X88       CONSTR2   189
    X88       CONSTR3   541
    X88       CONSTR4   601
    X88       CONSTR5   324
    X89       OBJ       914
    X89       CONSTR1   48
    X89       CONSTR2   880
    X89       CONSTR3   960
    X89       CONSTR4   31
    X89       CONSTR5   938
    X90       OBJ       510
    X90       CONSTR1   291
    X90       CONSTR2   813
    X90       CONSTR3   932
    X90       CONSTR4   211
    X90       CONSTR5   301
    X91       OBJ       749
    X91       CONSTR1   984
    X91       CONSTR2   996
    X91       CONSTR3   378
    X91       CONSTR4   207
    X91       CONSTR5   325
    X92       OBJ       727
    X92       CONSTR1   620
    X92       CONSTR2   717
    X92       CONSTR3   34
    X92       CONSTR4   228
    X92       CONSTR5   915
    X93       OBJ       731
    X93       CONSTR1   627
    X93       CONSTR2   283
    X93       CONSTR3   515
    X93       CONSTR4   160
    X93       CONSTR5   302
    X94       OBJ       663
    X94       CONSTR1   571
    X94       CONSTR2   702
    X94       CONSTR3   946
    X94       CONSTR4   523
    X94       CONSTR5   472
    X95       OBJ       790
    X95       CONSTR1   720
    X95       CONSTR2   797
    X95       CONSTR3   226
    X95       CONSTR4   328
    X95       CONSTR5   659
    X96       OBJ       888
    X96       CONSTR1   393
    X96       CONSTR2   650
    X96       CONSTR3   805
    X96       CONSTR4   10
    X96       CONSTR5   595
    X97       OBJ       506
    X97       CONSTR1   119
    X97       CONSTR2   280
    X97       CONSTR3   430
    X97       CONSTR4   707
    X97       CONSTR5   79
    X98       OBJ       545
    X98       CONSTR1   43
    X98       CONSTR2   344
    X98       CONSTR3   969
    X98       CONSTR4   423
    X98       CONSTR5   345
    X99       OBJ       872
    X99       CONSTR1   587
    X99       CONSTR2   592
    X99       CONSTR3   148
    X99       CONSTR4   324
    X99       CONSTR5   584
    X100      OBJ       635
    X100      CONSTR1   448
    X100      CONSTR2   512
    X100      CONSTR3   14
    X100      CONSTR4   194
    X100      CONSTR5   31
    INT0001   'MARKER'  'INTEND'
RHS
    RHS10001  CONSTR1   12440
    RHS10001  CONSTR2   12184
    RHS10001  CONSTR3   13875
    RHS10001  CONSTR4   11869
    RHS10001  CONSTR5   12243
BOUNDS
 BV BND       X1        .00
 BV BND       X2        .00
 BV BND       X3        .00
 BV BND       X4        .00
 BV BND       X5        .00
 BV BND       X6        .00
 BV BND       X7        .00
 BV BND       X8        .00
 BV BND       X9        .00
 BV BND       X10       .00
 BV BND       X11       .00
 BV BND       X12       .00
 BV BND       X13       .00
 BV BND       X14       .00
 BV BND       X15       .00
 BV BND       X16       .00
 BV BND       X17       .00
 BV BND       X18       .00
 BV BND       X19       .00
 BV BND       X20       .00
 BV BND       X21       .00
 BV BND       X22       .00
 BV BND       X23       .00
 BV BND       X24       .00
 BV BND       X25       .00
 BV BND       X26       .00
 BV BND       X27       .00
 BV BND       X28       .00
 BV BND       X29       .00
 BV BND       X30       .00
 BV BND       X31       .00
 BV BND       X32       .00
 BV BND       X33       .00
 BV BND       X34       .00
 BV BND       X35       .00
 BV BND       X36       .00
 BV BND       X37       .00
 BV BND       X38       .00
 BV BND       X39       .00
 BV BND       X40       .00
 BV BND       X41       .00
 BV BND       X42       .00
 BV BND       X43       .00
 BV BND       X44       .00
 BV BND       X45       .00
 BV BND       X46       .00
 BV BND       X47       .00
 BV BND       X48       .00
 BV BND       X49       .00
 BV BND       X50       .00
 BV BND       X51       .00
 BV BND       X52       .00
 BV BND       X53       .00
 BV BND       X54       .00
 BV BND       X55       .00
 BV BND       X56       .00
 BV BND       X57       .00
 BV BND       X58       .00
 BV BND       X59       .00
 BV BND       X60       .00
 BV BND       X61       .00
 BV BND       X62       .00
 BV BND       X63       .00
 BV BND       X64       .00
 BV BND       X65       .00
 BV BND       X66       .00
 BV BND       X67       .00
 BV BND       X68       .00
 BV BND       X69       .00
 BV BND       X70       .00
 BV BND       X71       .00
 BV BND       X72       .00
 BV BND       X73       .00
 BV BND       X74       .00
 BV BND       X75       .00
 BV BND       X76       .00
 BV BND       X77       .00
 BV BND       X78       .00
 BV BND       X79       .00
 BV BND       X80       .00
 BV BND       X81       .00
 BV BND       X82       .00
 BV BND       X83       .00
 BV BND       X84       .00
 BV BND       X85       .00
 BV BND       X86       .00
 BV BND       X87       .00
 BV BND       X88       .00
 BV BND       X89       .00
 BV BND       X90       .00
 BV BND       X91       .00
 BV BND       X92       .00
 BV BND       X93       .00
 BV BND       X94       .00
 BV BND       X95       .00
 BV BND       X96       .00
 BV BND       X97       .00
 BV BND       X98       .00
 BV BND       X99       .00
 BV BND       X100      .00
ENDATA
